40
20
6
5 1 2 3 4 5
5 6 7 8 9 10
5 11 12 13 14 15
5 16 17 18 19 20
5 21 22 23 24 25
5 26 27 28 29 30
5 31 32 33 34 35
5 36 37 38 39 40

10 1 2 3 11 12 13 21 22 23 31
10 4 5 14 15 24 25 32 33 34 35
10 6 7 8 16 17 27 28 36 37 38
10 9 10 18 19 20 29 30 39 40

8 1 6 11 16 21 26 31 36
8 5 10 15 20 25 30 35 40
8 2 7 12 17 22 27 32 37
8 3 8 13 18 23 28 33 38

6 1 11 21 31 6 16
6 2 12 22 32 7 17
6 3 13 23 33 8 18
6 4 14 24 34 9 19
